50
    1    95   218
    2   667   419
    3   177     5
    4   321   426
    5   722    15
    6   974   464
    7   522   528
    8   792   818
    9   807   760
   10   663   721
   11   864   910
   12   664   458
   13   220   703
   14   311   571
   15   504   767
   16   697    91
   17   527   272
   18   111   807
   19    59   724
   20   254   549
   21   946   664
   22   772    78
   23   237   447
   24   981   757
   25   946   319
   26   707   207
   27   433   901
   28    76   726
   29   611   560
   30   653   446
   31   398   380
   32   221   842
   33   989   246
   34   756   908
   35   244   303
   36    82   376
   37   850   655
   38   996   947
   39   655   679
   40   776   797
   41    69     2
   42   850   920
   43   114   665
   44   792   812
   45   195   682
   46   136   953
   47   605   540
   48   145   472
   49    45    50
   50   390   823
13691
